%oldchk=nio
%chk=cylinderBasedPAD
#p test hf gen guess(read,save,only) pop=(orbitals,threshorb=-1)
iop(3/46=2)
output=faf

title

1  2
 C                 -0.53069430   -0.00001021   -0.00007869
 O                  0.67627780   -0.00002843    0.00003256
 H                 -1.11278606    0.91363109    0.00008489
 H                 -1.11327057   -0.91334239    0.00012682

  1  2  0
 S  11 1.00       0.000000000000
      0.9506000000D+06  0.2274727038D-04
      0.1423000000D+06  0.1769283802D-03
      0.3236000000D+05  0.9311658097D-03
      0.9145000000D+04  0.3928062893D-02
      0.2970000000D+04  0.1420418551D-01
      0.1064000000D+04  0.4480098855D-01
      0.4108000000D+03  0.1209535035D+00
      0.1680000000D+03  0.2603652941D+00
      0.7199000000D+02  0.3806534034D+00
      0.3167000000D+02  0.2749002247D+00
      0.1289000000D+02  0.5186220985D-01
 S   8 1.00       0.000000000000
      0.2970000000D+04 -0.6571486483D-04
      0.1064000000D+04 -0.8812682800D-03
      0.4108000000D+03 -0.6531592312D-02
      0.1680000000D+03 -0.3688025753D-01
      0.7199000000D+02 -0.1385215002D+00
      0.3167000000D+02 -0.2355328562D+00
      0.1289000000D+02  0.2809792414D+00
      0.5929000000D+01  0.9250448402D+00
 S   8 1.00       0.000000000000
      0.2970000000D+04  0.1352569493D-04
      0.1064000000D+04 -0.3746495555D-04
      0.1680000000D+03 -0.1139537676D-02
      0.7199000000D+02 -0.6885099168D-03
      0.3167000000D+02 -0.1320950199D-02
      0.1289000000D+02  0.6776212897D-02
      0.5929000000D+01 -0.2711049401D+00
      0.2678000000D+01 -0.7548773419D+00
 S   1 1.00       0.000000000000
      0.9416000000D+00  0.1000000000D+01
 S   1 1.00       0.000000000000
      0.4239000000D+00  0.1000000000D+01
 S   1 1.00       0.000000000000
      0.1714000000D+00  0.1000000000D+01
 P   7 1.00       0.000000000000
      0.1890000000D+04  0.5177759844D-03
      0.4478000000D+03  0.4437671197D-02
      0.1446000000D+03  0.2341519979D-01
      0.5446000000D+02  0.8759154381D-01
      0.2251000000D+02  0.2322448146D+00
      0.9774000000D+01  0.4052237699D+00
      0.4368000000D+01  0.4107755450D+00
 P   6 1.00       0.000000000000
      0.1446000000D+03 -0.1024937263D-02
      0.5446000000D+02 -0.8032958804D-02
      0.2251000000D+02 -0.5207880244D-01
      0.9774000000D+01 -0.1324043338D+00
      0.4368000000D+01 -0.2613812605D+00
      0.1959000000D+01  0.1245755085D+01
 P   1 1.00       0.000000000000
      0.8260000000D+00  0.1000000000D+01
 P   1 1.00       0.000000000000
      0.3297000000D+00  0.1000000000D+01
 P   1 1.00       0.000000000000
      0.1242000000D+00  0.1000000000D+01
 D   1 1.00       0.000000000000
      0.3110000000D+00  0.1000000000D+01
 D   1 1.00       0.000000000000
      0.7630000000D+00  0.1000000000D+01
 D   1 1.00       0.000000000000
      0.1873000000D+01  0.1000000000D+01
 ****

cylinderBasedPAD.faf

